1237.82
0 19 14 12 11 6 2 4 1 3 9 8 7 5 10 0
0 15 16 18 17 13 21 20 22 0
0 35 31 32 34 26 29 27 25 24 28 30 23 0
0 36 39 38 37 33 41 40 45 44 42 43 47 0
0 56 53 54 55 59 52 51 48 50 46 49 61 0
0 58 60 57 64 62 66 67 65 63 0
0 70 73 71 76 77 78 72 68 69 74 75 0
0 80 79 81 83 82 84 85 86 87 88 89 0
0 92 93 94 97 99 98 96 95 91 90 0
0 100 0
